Minimize
  - 28 y_0 - 41 y_2 - 49 y_3 - 35 y_4 - 17 y_5 - 49 y_6 - 42 y_7 - 44 y_8
   - 49 y_9 - 47 y_10 - 51 y_11 - 40 y_12 - 48 y_13 - 47 y_14 - 40 y_15
   - 8 y_16 - 52 y_17 - 33 y_18 - 54 y_19 - 50 y_20 - 36 y_21 - 35 y_22
   - 16 y_23 - 38 y_24 - 38 y_25 - 33 y_26 - 48 y_27 - 63 y_28 - 27 y_29
   - 24 y_30 - 44 y_31 - 44 y_32 - 52 y_33 - 58 y_34 - 47 y_35 - 30 y_36
   - 53 y_37 - 14 y_38 - 40 y_39 - 48 y_40 - 35 y_41 - 42 y_42 - 49 y_43
   - 47 y_44 - 62 y_45 - 38 y_46 - 45 y_47 - 26 y_48 - 34 y_49
   + 1990 Constant
Subject To
 c_0: y_23 = 1
 c_1_0: y_0 + y_4 + y_18 + y_21 + y_29 + y_30 + y_41 + y_48 >= 1
 c_1_1: y_1 + y_16 >= 1
 c_1_2: y_2 + y_4 + y_18 + y_21 + y_39 + y_42 + y_47 >= 1
 c_1_3: y_3 + y_8 + y_14 + y_15 + y_27 + y_32 >= 1
 c_1_4: y_0 + y_2 + y_4 + y_18 + y_21 + y_42 + y_47 >= 1
 c_1_5: y_5 + y_48 >= 1
 c_1_6: y_6 + y_9 + y_10 + y_17 + y_19 + y_37 + y_43 + y_44 >= 1
 c_1_7: y_7 + y_13 + y_31 + y_40 + y_41 + y_46 >= 1
 c_1_8: y_3 + y_8 + y_12 + y_14 + y_15 + y_20 + y_27 >= 1
 c_1_9: y_6 + y_9 + y_11 + y_17 + y_24 + y_31 + y_37 + y_43 + y_44 >= 1
 c_1_10: y_6 + y_10 + y_19 + y_20 + y_33 + y_37 + y_43 >= 1
 c_1_11: y_9 + y_11 + y_13 + y_17 + y_31 + y_34 + y_40 + y_44 >= 1
 c_1_12: y_8 + y_12 + y_14 + y_15 + y_27 + y_49 >= 1
 c_1_13: y_7 + y_11 + y_13 + y_31 + y_40 >= 1
 c_1_14: y_3 + y_8 + y_12 + y_14 + y_15 + y_27 + y_32 >= 1
 c_1_15: y_3 + y_8 + y_12 + y_14 + y_15 + y_26 + y_27 + y_32 + y_49 >= 1
 c_1_16: y_1 + y_16 + y_23 + y_38 >= 1
 c_1_17: y_6 + y_9 + y_11 + y_17 + y_31 + y_34 + y_37 + y_44 >= 1
 c_1_18: y_0 + y_2 + y_4 + y_18 + y_21 + y_30 + y_42 >= 1
 c_1_19: y_6 + y_10 + y_19 + y_20 + y_33 + y_37 + y_43 >= 1
 c_1_20: y_8 + y_10 + y_19 + y_20 + y_33 + y_43 >= 1
 c_1_21: y_0 + y_2 + y_4 + y_18 + y_21 + y_42 + y_47 >= 1
 c_1_22: y_22 + y_24 + y_25 + y_29 + y_36 >= 1
 c_1_23: y_16 + y_23 + y_38 >= 1
 c_1_24: y_9 + y_22 + y_24 + y_25 + y_31 + y_36 + y_41 + y_44 + y_46 >= 1
 c_1_25: y_22 + y_24 + y_25 + y_31 + y_36 + y_41 + y_44 + y_46 >= 1
 c_1_26: y_15 + y_26 + y_49 >= 1
 c_1_27: y_3 + y_8 + y_12 + y_14 + y_15 + y_27 >= 1
 c_1_28: y_28 + y_37 >= 1
 c_1_29: y_0 + y_22 + y_29 + y_36 + y_41 + y_48 >= 1
 c_1_30: y_0 + y_18 + y_30 + y_48 >= 1
 c_1_31: y_7 + y_9 + y_11 + y_13 + y_17 + y_24 + y_25 + y_31 + y_40 + y_41
   + y_44 + y_46 >= 1
 c_1_32: y_3 + y_14 + y_15 + y_32 >= 1
 c_1_33: y_10 + y_19 + y_20 + y_33 >= 1
 c_1_34: y_11 + y_17 + y_34 + y_45 >= 1
 c_1_35: y_35 + y_42 + y_47 >= 1
 c_1_36: y_22 + y_24 + y_25 + y_29 + y_36 + y_41 >= 1
 c_1_37: y_6 + y_9 + y_10 + y_17 + y_19 + y_28 + y_37 + y_43 + y_44 >= 1
 c_1_38: y_16 + y_23 + y_38 >= 1
 c_1_39: y_2 + y_39 + y_42 >= 1
 c_1_40: y_7 + y_11 + y_13 + y_31 + y_40 >= 1
 c_1_41: y_0 + y_7 + y_24 + y_25 + y_29 + y_31 + y_36 + y_41 + y_46 >= 1
 c_1_42: y_2 + y_4 + y_18 + y_21 + y_35 + y_39 + y_42 + y_47 >= 1
 c_1_43: y_6 + y_9 + y_10 + y_19 + y_20 + y_37 + y_43 + y_44 >= 1
 c_1_44: y_6 + y_9 + y_11 + y_17 + y_24 + y_25 + y_31 + y_37 + y_43 + y_44
   >= 1
 c_1_45: y_34 + y_45 >= 1
 c_1_46: y_7 + y_24 + y_25 + y_31 + y_41 + y_46 >= 1
 c_1_47: y_2 + y_4 + y_21 + y_35 + y_42 + y_47 >= 1
 c_1_48: y_0 + y_5 + y_29 + y_30 + y_48 >= 1
 c_1_49: y_12 + y_15 + y_26 + y_49 >= 1
Bounds
 Constant = 1
Binaries
 y_0 y_1 y_2 y_3 y_4 y_5 y_6 y_7 y_8 y_9 y_10 y_11 y_12 y_13 y_14 y_15 y_16
 y_17 y_18 y_19 y_20 y_21 y_22 y_23 y_24 y_25 y_26 y_27 y_28 y_29 y_30 y_31
 y_32 y_33 y_34 y_35 y_36 y_37 y_38 y_39 y_40 y_41 y_42 y_43 y_44 y_45 y_46
 y_47 y_48 y_49
End
